3 
4  55 
5  15 33 48 
6  01 16 31 46 
7  01 16 31 46 
8  01 16 31 47 
9  01 16 31 46 
10  01 15 30 45 
11  00 15 30 45 
12  00 15 30 45 
13  00 15 30 45 
14  00 15 30 45 
15  00 15 30 45 
16  00 15 30 45 
17  00 15 30 45 
18  00 16 31 46 
19  01 16 31 46 
20  01 16 31 49 
21  04 16 31 46 
22  01 20 35 51 
23 
0 
